Please solve the following SAT Problem encoded in DIMACS format, provide line of thoughts, write your final answer as a single solution at the end of response with header 'answer: ' : 
p cnf 10 65
-8 -7 -9 0
5 -9 -8 0
4 2 3 0
5 -7 -2 0
-7 2 5 0
10 -4 -1 0
1 -7 3 0
-4 -7 3 0
-2 -7 -4 0
-1 5 -8 0
6 -7 -4 0
5 3 -6 0
-7 3 -8 0
6 10 -9 0
-9 -4 -1 0
-1 -10 -7 0
10 -7 2 0
2 -4 -1 0
2 8 -1 0
-4 -8 3 0
3 -8 -1 0
-4 3 -9 0
-9 3 5 0
-7 6 2 0
-7 2 -8 0
5 -7 -4 0
-4 10 6 0
-4 -7 6 0
-1 10 5 0
-4 2 -9 0
5 -7 3 0
-9 -2 6 0
3 -9 -7 0
5 2 -7 0
6 5 10 0
-9 -1 2 0
6 3 -8 0
10 5 7 0
9 -1 5 0
5 10 2 0
-7 -8 -9 0
-4 -7 -1 0
10 -6 5 0
10 9 3 0
10 -9 -8 0
-9 -10 -8 0
5 -4 3 0
3 -1 10 0
-9 -8 -7 0
5 -4 10 0
-6 -7 2 0
-7 -10 5 0
8 5 -4 0
10 2 8 0
-4 8 3 0
5 -8 6 0
-9 6 2 0
-1 5 2 0
-9 2 -7 0
-7 -10 6 0
-7 10 8 0
-6 -4 3 0
-9 -8 3 0
10 2 -8 0
-8 4 2 0

